(declare-fun v1 () (_ BitVec 16))
(declare-fun v21 () (_ BitVec 8))
(declare-fun v23 () (_ BitVec 10))
(assert
(let (($e1 (_ bv0 1)))
(let (($e3 (_ bv1 1)))
(let (($e19 (_ bv108 7)))
(let (($e38 (_ bv0 7)))
(let (($e143                          v1 ))
(let (($e206                    v21       ))
(let (($e208                    $e3     ))
(let (($e209 (concat $e208 $e19)))
(let (($e210 (bvand        $e209         $e206 )))
(let (($e211 (concat $e1 $e210)))
(let (($e313 (concat $e38 $e211)))
(let (($e314 (bvand $e143 $e313)))
(let (($e348                         $e38 ))
(let (($e349 (concat $e348 $e211)))
(let (($e350 (   extract      v23)))
(let (($e351             $e350          ))
(let (($e352            $e351 ))
             (ite        $e352  $e349 $e314)
                                                                                                                                                                                                                                                                                                                                                                                                                                                                                                                                                                                                                                                                                                                                                                                                                                                                                                                                                                                                                                                                                                                                                                                                                                                                                                                                                                                                                                                                                                                                                                                                                                                                                                                                                                                                                                                                                                                                                                                                                                                                                                                                                                                                                                                                                                                                                                                                                                                                                                                                                                                                                                                                                                                                                                                                                                                                                                                                                                                                                                                                                                                                                                                                                                                                                                                                                                                                                                                                                                                                                                                                                                                                                                                                                                                                                                                                                                                                                                                                                                                                                                                                                                                                                                                                                                                                                                                                                                                                                                                                                                                                                                                                                                                                                                                                                                                                                                                                                                                                                                                                                                                                                                                                                                                                                                                                                                                                                                                                                                                                                                                                                                                                                                                                                                                                                                                                                                                                                                                                                                                                                                                                                                                                                                                                                                                                                                        )))))                                 ))                                                                                                     )))) )                                                              )                                                                        )                  )               ) ))
